c  **** 1,3-WPM transformed formula ****
c 
p wcnf 19 28 29
c ===== Hard Clauses =====
29 1 2 6 0
29 -1 2 7 0
29 1 3 8 0
29 -1 3 9 0
29 1 4 10 0
29 -1 4 11 0
29 1 5 12 0
29 -1 5 13 0
29 2 3 14 0
29 -2 3 15 0
29 3 4 16 0
29 -3 4 17 0
29 4 5 18 0
29 -4 5 19 0
c ===== Soft Clauses (Sum weights: 28) =====
1 -6 0
1 -7 0
1 -8 0
1 -9 0
1 -10 0
1 -11 0
1 -12 0
1 -13 0
1 -14 0
1 -15 0
1 -16 0
1 -17 0
1 -18 0
1 -19 0
